50 8
517 456
269 395
702 383
846 236
664 834
422 632
401 157
232 370
424 589
593 363
36 442
463 179
524 715
283 567
239 200
625 754
41 316
98 390
573 442
175 327
742 686
122 276
818 293
475 835
459 682
241 384
520 435
763 769
787 314
684 539
571 610
312 562
570 643
137 422
350 590
591 346
375 491
483 833
642 538
296 530
624 561
441 600
406 645
268 490
729 757
470 609
466 173
822 173
679 375
230 256
